c ---- [ banner ] ------------------------------------------------------------
c
c Kissat SAT Solver
c 
c Copyright (c) 2021-2022 Armin Biere University of Freiburg
c Copyright (c) 2019-2021 Armin Biere Johannes Kepler University Linz
c 
c Version 3.0.0 97917ddf2b12adc6f63c7b2a5a403a1ee7d81836
c gcc (Ubuntu 9.4.0-1ubuntu1~20.04.1) 9.4.0 -W -Wall -O3 -DNDEBUG
c Fri Oct 7 14:23:58 PDT 2022 Linux jap-Lenovo-Yoga-C740-15IML 5.15.0-48-generic x86_64
c
c ---- [ parsing ] -----------------------------------------------------------
c
c opened and reading DIMACS file:
c
c   Pigeon5Holes4
c
c parsed 'p cnf 20 45' header
c closing input after reading 437 bytes
c finished parsing after 0.00 seconds
c
c ---- [ solving ] -----------------------------------------------------------
c
c  seconds switched rate      trail variables
c         MB reductions conflicts glue  remaining
c          level restarts redundant irredundant
c
c *  0.00  1 0 0 0  0 0   0   0 0% 0 45 20 95%
c {  0.00  1 0 0 0  0 0   0   0 0% 0 45 20 95%
c i  0.00  1 3 0 0  0 1  10   9 94% 1 45 19 90%
c i  0.00  1 4 0 0  0 1  29  26 97% 2 45 14 67%
c i  0.00  1 4 0 0  0 1  31  27 97% 2 45 12 57%
c i  0.00  1 3 0 0  0 1  32  27 97% 1 45  8 38%
c }  0.00  1 3 0 0  0 1  34  27 97% 1 45  0 0%
c 0  0.00  1 3 0 0  0 1  34  27 97% 1 45  0 0%
c
c ---- [ result ] ------------------------------------------------------------
c
s UNSATISFIABLE
c
c ---- [ profiling ] ---------------------------------------------------------
c
c           0.00   70.02 %  search
c           0.00   55.33 %  focused
c           0.00   12.07 %  parse
c           0.00    0.00 %  simplify
c =============================================
c           0.00  100.00 %  total
c
c ---- [ statistics ] --------------------------------------------------------
c
c conflicts:                               34            30465.95 per second
c decisions:                               42                1.24 per conflict
c propagations:                           328           293907    per second
c
c ---- [ resources ] ---------------------------------------------------------
c
c maximum-resident-set-size:           991232 bytes          1 MB
c process-time:                                              0.00 seconds
c
c ---- [ shutting down ] -----------------------------------------------------
c
c exit 20
